#######################################
### Exact MIP solver for the HHCRSP ###
#######################################
-- Instance file: new-instances/HHCRSP_200_40_98_1.0_C_RC.txt
-- Max threads: 4
-- Time limit: 999999 seconds
-- Use initial solution: No
Trivial flow violations prevented generating 359207 variables.
Version identifier: 20.1.0.0 | 2020-11-10 | 9bedb6d68
CPXPARAM_Threads                                 4
CPXPARAM_TimeLimit                               999999
Parallel mode: deterministic, using up to 4 threads for concurrent optimization:
 * Starting dual Simplex on 1 thread...
 * Starting Barrier on 3 threads...
Tried aggregator 1 time.
LP Presolve eliminated 21012 rows and 4857 columns.
Reduced LP has 378462 rows, 359921 columns, and 6548094 nonzeros.
Presolve time = 14.23 sec. (1516.18 ticks)
Symmetry aggregator did 554477 additional substitutions.
Initializing dual steep norms . . .

Iteration log . . .
Iteration:     1   Dual objective     =             0.333333

Dual crossover.
  Dual:  Fixing 912 variables.
      911 DMoves:  Infeasibility  5.05706592e-13  Objective  2.96000000e+02
        0 DMoves:  Infeasibility  2.89823725e-13  Objective  2.96000000e+02
  Dual:  Pushed 40, exchanged 872.
  Primal:  Fixing 529 variables.
      528 PMoves:  Infeasibility  0.00000000e+00  Objective  2.96000000e+02
        0 PMoves:  Infeasibility  0.00000000e+00  Objective  2.96000000e+02
  Primal:  Pushed 434, exchanged 95.

Dual simplex solved model.


Solution status from MIP model:
-- Processing time: 24.6 sec.
-- Memory used: 403.711 MB
-- Best bound: inf
-- Obj value: 296
-- Gap: inf%
-- Total distance: 888
-- Total tardiness: 0
-- Largest tardiness: 0
